RAW/CMTQ/fspd-long/CMT14Q.vrp_seed-0.out
821.7458258	0.386	294.111
