RAW/CMTQ/fspd-long/CMT14Q.vrp_seed-0.sol
Route #1: 67 65 62 74 72 61 64 68 66 69
Route #2: 90 87 86 83 82 84 85 88 89 91
Route #3: 75 1 4 6 9 11 8 7 3 5
Route #4: 23 13 17 18 19 15 16 14 12 10
Route #5: 21 22 26 28 30 29 27 25 24 20
Route #6: 47 49 50 51 48 46 45 44 42 43
Route #7: 57 55 54 53 56 58 60 59 40 41
Route #8: 32 33 34 36 39 38 37 35 31 52
Route #9: 63 80 79 77 73 70 71 76 78 81
Route #10: 98 96 95 94 92 93 97 100 99 2
Cost 821.745826